Normalized Data/p02_24_normalized_split0.vrp
NAME:p02_24_NORMALIZED_split
BEST_KNOWN: 0
COMMENT: 0
DIMENSION: 284
CAPACITY: 100
EDGE_WEIGHT_FORMAT: FUNCTION
EDGE_WEIGHT_TYPE: EXACT_2D
NODE_COORD_SECTION
1 0.00000 0.00000
2 47 -45
3 47 -45
4 47 -45
5 47 -45
6 47 -45
7 -31 22
8 -31 22
9 -31 22
10 -31 22
11 5 -48
12 5 -48
13 5 -48
14 29 26
15 29 26
16 29 26
17 29 26
18 17 19
19 17 19
20 17 19
21 31 11
22 31 11
23 31 11
24 31 11
25 31 11
26 12 -21
27 12 -21
28 12 -21
29 12 -21
30 -38 47
31 -38 47
32 -38 47
33 -38 47
34 48 -49
35 48 -49
36 48 -49
37 48 -49
38 48 -49
39 48 -49
40 21 -7
41 21 -7
42 21 -7
43 21 -7
44 21 -7
45 21 -7
46 21 -7
47 6 -28
48 6 -28
49 6 -28
50 -35 29
51 -35 29
52 -35 29
53 -35 29
54 -11 -8
55 -11 -8
56 -11 -8
57 -11 -8
58 -11 -8
59 20 -27
60 20 -27
61 20 -27
62 20 -27
63 20 -27
64 -40 23
65 -40 23
66 -40 23
67 -40 23
68 -40 23
69 -40 23
70 24 -23
71 24 -23
72 24 -23
73 -6 -28
74 -6 -28
75 -6 -28
76 -6 -28
77 -7 36
78 -7 36
79 43 -33
80 43 -33
81 43 -33
82 43 -33
83 42 6
84 42 6
85 42 6
86 42 6
87 42 6
88 42 6
89 8 -10
90 8 -10
91 8 -10
92 8 -10
93 8 -10
94 8 -10
95 -1 -23
96 -1 -23
97 -1 -23
98 -1 -23
99 -1 -23
100 30 -31
101 30 -31
102 30 -31
103 30 -31
104 25 -36
105 -35 38
106 -35 38
107 -35 38
108 -35 38
109 -6 -18
110 -6 -18
111 -6 -18
112 -6 -18
113 -29 -18
114 -29 -18
115 10 32
116 10 32
117 17 33
118 17 33
119 17 33
120 17 33
121 17 33
122 33 -22
123 33 -22
124 33 -22
125 33 -22
126 8 47
127 8 47
128 8 47
129 8 47
130 8 47
131 -49 -38
132 -49 -38
133 -49 -38
134 -22 19
135 -22 19
136 -22 19
137 6 -33
138 6 -33
139 6 -33
140 6 -33
141 6 -33
142 -1 40
143 -1 40
144 -1 40
145 -1 40
146 -49 -44
147 -49 -44
148 -49 -44
149 -49 -44
150 -49 -44
151 -49 -44
152 12 48
153 12 48
154 12 48
155 12 48
156 -49 -6
157 -49 -6
158 -49 -6
159 -49 -6
160 -46 -9
161 -46 -9
162 -46 -9
163 -46 -9
164 -46 -9
165 -35 -33
166 -35 -33
167 -35 -33
168 -35 -33
169 -35 -33
170 -17 -40
171 -17 -40
172 -17 -40
173 -17 -40
174 -17 -40
175 -30 -48
176 -30 -48
177 30 -29
178 30 -29
179 30 -29
180 -46 46
181 -46 46
182 40 -49
183 40 -49
184 -10 -47
185 -10 -47
186 -14 41
187 -14 41
188 -14 41
189 -6 -6
190 -6 -6
191 -6 -6
192 -6 -6
193 42 8
194 42 8
195 42 8
196 42 8
197 42 8
198 42 -21
199 42 -21
200 -5 -23
201 -5 -23
202 -5 -23
203 -5 -23
204 -5 -23
205 18 40
206 18 40
207 18 40
208 45 -33
209 45 -33
210 45 -33
211 45 -33
212 26 -33
213 26 -33
214 26 -33
215 26 -33
216 26 -33
217 -12 -32
218 -12 -32
219 -12 -32
220 27 18
221 27 18
222 -49 -50
223 -49 -50
224 -49 -50
225 -49 -50
226 2 -21
227 2 -21
228 33 -48
229 33 -48
230 33 -48
231 33 -48
232 -31 -4
233 -31 -4
234 -31 -4
235 -16 -27
236 -16 -27
237 -19 25
238 -19 25
239 -19 25
240 -19 25
241 -19 25
242 -5 -36
243 -5 -36
244 -5 -19
245 -5 -19
246 -5 -19
247 -5 -19
248 -5 -19
249 -27 17
250 -27 17
251 -2 4
252 -2 4
253 -2 -5
254 -2 -5
255 -1 -1
256 -1 -1
257 4 -45
258 4 -45
259 4 -45
260 4 -45
261 4 -45
262 25 38
263 25 38
264 25 38
265 25 38
266 -6 15
267 -6 15
268 -6 15
269 -6 15
270 -29 41
271 -29 41
272 -11 50
273 -11 50
274 -11 50
275 -11 50
276 -19 32
277 -19 32
278 -19 32
279 -19 32
280 -19 32
281 10 -43
282 10 -43
283 10 -43
284 10 -43
DEMAND_SECTION
1 0
2 20
3 20
4 1
5 1
6 1
7 20
8 20
9 5
10 1
11 20
12 10
13 5
14 10
15 1
16 1
17 1
18 20
19 20
20 5
21 20
22 10
23 1
24 1
25 1
26 10
27 5
28 1
29 1
30 20
31 20
32 5
33 1
34 20
35 20
36 1
37 1
38 1
39 1
40 20
41 10
42 5
43 1
44 1
45 1
46 1
47 20
48 10
49 1
50 20
51 5
52 1
53 1
54 20
55 1
56 1
57 1
58 1
59 10
60 5
61 1
62 1
63 1
64 20
65 20
66 5
67 1
68 1
69 1
70 10
71 1
72 1
73 20
74 5
75 1
76 1
77 20
78 10
79 20
80 5
81 1
82 1
83 10
84 5
85 1
86 1
87 1
88 1
89 20
90 5
91 1
92 1
93 1
94 1
95 10
96 1
97 1
98 1
99 1
100 20
101 5
102 1
103 1
104 20
105 20
106 5
107 1
108 1
109 10
110 5
111 1
112 1
113 20
114 20
115 20
116 1
117 20
118 10
119 5
120 1
121 1
122 20
123 10
124 1
125 1
126 20
127 1
128 1
129 1
130 1
131 20
132 20
133 5
134 20
135 1
136 1
137 20
138 1
139 1
140 1
141 1
142 20
143 10
144 5
145 1
146 10
147 5
148 1
149 1
150 1
151 1
152 10
153 1
154 1
155 1
156 20
157 20
158 5
159 1
160 10
161 5
162 1
163 1
164 1
165 20
166 20
167 5
168 1
169 1
170 20
171 20
172 5
173 1
174 1
175 10
176 5
177 20
178 20
179 10
180 20
181 10
182 20
183 1
184 20
185 5
186 20
187 1
188 1
189 10
190 1
191 1
192 1
193 20
194 20
195 5
196 1
197 1
198 20
199 10
200 20
201 5
202 1
203 1
204 1
205 20
206 10
207 5
208 20
209 1
210 1
211 1
212 20
213 1
214 1
215 1
216 1
217 20
218 20
219 10
220 10
221 5
222 20
223 5
224 1
225 1
226 20
227 1
228 20
229 10
230 5
231 1
232 20
233 20
234 5
235 20
236 10
237 20
238 10
239 5
240 1
241 1
242 20
243 20
244 20
245 1
246 1
247 1
248 1
249 10
250 5
251 10
252 5
253 10
254 5
255 20
256 10
257 20
258 20
259 1
260 1
261 1
262 10
263 5
264 1
265 1
266 20
267 10
268 1
269 1
270 20
271 20
272 20
273 5
274 1
275 1
276 10
277 5
278 1
279 1
280 1
281 20
282 10
283 5
284 1
DEPOT_SECTION
1
-1
EOF