Normalized Data/p02_24_normalized_split0.sol
283 -6 7 63 67 65 66 68 64 -13 15 14 16 263 262 261 264 205 204 206 120 117 115 114 -18 19 17 219 220 40 39 41 42 44 43 45 -23 22 21 20 24 193 192 194 195 196 84 83 82 86 85 87 -25 26 28 27 62 58 283 280 281 282 139 140 47 48 46 -32 29 31 30 180 179 104 107 106 -34 37 36 33 35 38 4 5 2 3 1 124 122 123 -57 55 56 54 132 130 131 147 150 146 145 149 148 222 223 224 221 166 -60 59 61 212 213 214 100 101 99 102 178 176 177 71 69 70 -76 77 272 271 274 273 186 185 187 276 278 275 279 277 -89 88 92 90 93 91 -103 227 230 228 229 181 182 211 215 -111 109 108 110 218 216 217 235 234 -116 119 118 154 152 153 151 125 126 127 128 129 141 143 144 142 -121 81 80 78 79 209 207 210 208 198 197 -135 134 133 238 240 239 237 236 265 266 268 267 -137 138 136 11 12 10 258 260 257 256 259 -162 160 163 161 159 157 158 155 156 231 233 -165 164 167 168 175 174 173 169 170 172 -171 183 184 242 241 75 73 72 74 245 246 -190 188 191 189 53 112 113 232 -226 225 96 97 98 95 94 199 203 201 202 200 243 247 244 252 253 -249 248 8 9 50 52 51 49 105 270 269 -250 251 -254 255 0 





OBJ=
2282.502
BEST_KNOWN=
0.000